Minimize
 obj: + 140.4 x_user1_load0_hour0 + 168 x_user1_load0_hour1 
 + 186.7 x_user1_load0_hour2 + 212.5 x_user1_load0_hour3 
 + 225.3 x_user1_load0_hour4 + 231.4 x_user1_load0_hour5 
 + 228.4 x_user1_load0_hour6 + 230.6 x_user1_load0_hour7 
 + 229.9 x_user1_load0_hour8 + 218.3 x_user1_load0_hour9 
 + 205.7 x_user1_load0_hour10 + 185.4 x_user1_load0_hour11 
 + 145.2 x_user1_load1_hour0 + 163.8 x_user1_load1_hour1 
 + 189.6 x_user1_load1_hour2 + 212.2 x_user1_load1_hour3 
 + 230.2 x_user1_load1_hour4 + 229.2 x_user1_load1_hour5 
 + 227.2 x_user1_load1_hour6 + 234.4 x_user1_load1_hour7 
 + 228.8 x_user1_load1_hour8 + 220 x_user1_load1_hour9 
 + 206.6 x_user1_load1_hour10 + 186.2 x_user1_load1_hour11 
 + 160.8 x_user1_load1_hour12 + 161.9 x_user1_load2_hour0 
 + 200 x_user1_load2_hour1 + 217.3 x_user1_load2_hour2 
 + 249.1 x_user1_load2_hour3 + 259.8 x_user1_load2_hour4 
 + 271.2 x_user1_load2_hour5 + 267.6 x_user1_load2_hour6 
 + 266.4 x_user1_load2_hour7 + 268.4 x_user1_load2_hour8 
 + 252.9 x_user1_load2_hour9 + 238.3 x_user1_load2_hour10 
 + 214.4 x_user1_load2_hour11 + 94.1 x_user1_load3_hour0 
 + 113.9 x_user1_load3_hour1 + 125.4 x_user1_load3_hour2 
 + 142.7 x_user1_load3_hour3 + 149.6 x_user1_load3_hour4 
 + 154.4 x_user1_load3_hour5 + 152.8 x_user1_load3_hour6 
 + 153 x_user1_load3_hour7 + 152.9 x_user1_load3_hour8 
 + 144.6 x_user1_load3_hour9 + 135.9 x_user1_load3_hour10 
 + 122.1 x_user1_load3_hour11 + 86.3 x_user1_load4_hour0 
 + 106.7 x_user1_load4_hour1 + 116.9 x_user1_load4_hour2 
 + 136.8 x_user1_load4_hour3 + 148.3 x_user1_load4_hour4 
 + 155.8 x_user1_load4_hour5 + 150.8 x_user1_load4_hour6 
 + 153.6 x_user1_load4_hour7 + 156.2 x_user1_load4_hour8 
 + 148.5 x_user1_load4_hour9 + 142.4 x_user1_load4_hour10 
 + 130.3 x_user1_load4_hour11 + 114.7 x_user1_load4_hour12 
 + 312.8 x_user1_load5_hour0 + 360.4 x_user1_load5_hour1 
 + 370.8 x_user1_load5_hour2 + 399.3 x_user1_load5_hour3 
 + 418.6 x_user1_load5_hour4 + 422.4 x_user1_load5_hour5 
 + 410.6 x_user1_load5_hour6 + 399.3 x_user1_load5_hour7 
 + 384.8 x_user1_load5_hour8 + 350.4 x_user1_load5_hour9 
 + 86.3 x_user1_load6_hour0 + 106.7 x_user1_load6_hour1 
 + 116.9 x_user1_load6_hour2 + 136.8 x_user1_load6_hour3 
 + 148.3 x_user1_load6_hour4 + 155.8 x_user1_load6_hour5 
 + 150.8 x_user1_load6_hour6 + 153.6 x_user1_load6_hour7 
 + 156.2 x_user1_load6_hour8 + 148.5 x_user1_load6_hour9 
 + 142.4 x_user1_load6_hour10 + 130.3 x_user1_load6_hour11 
 + 114.7 x_user1_load6_hour12 + 98.9 x_user1_load7_hour0 
 + 109.7 x_user1_load7_hour1 + 128.3 x_user1_load7_hour2 
 + 142.4 x_user1_load7_hour3 + 154.5 x_user1_load7_hour4 
 + 152.2 x_user1_load7_hour5 + 151.6 x_user1_load7_hour6 
 + 156.8 x_user1_load7_hour7 + 151.8 x_user1_load7_hour8 
 + 146.3 x_user1_load7_hour9 + 136.8 x_user1_load7_hour10 
 + 122.9 x_user1_load7_hour11 + 105.7 x_user1_load7_hour12 

Subject To 
 load_load0_scheduled: + 1 x_user1_load0_hour0 + 1 x_user1_load0_hour1 
 + 1 x_user1_load0_hour2 + 1 x_user1_load0_hour3 + 1 x_user1_load0_hour4 
 + 1 x_user1_load0_hour5 + 1 x_user1_load0_hour6 + 1 x_user1_load0_hour7 
 + 1 x_user1_load0_hour8 + 1 x_user1_load0_hour9 + 1 x_user1_load0_hour10 
 + 1 x_user1_load0_hour11  = 1.0
 load_load1_scheduled: + 1 x_user1_load1_hour0 + 1 x_user1_load1_hour1 
 + 1 x_user1_load1_hour2 + 1 x_user1_load1_hour3 + 1 x_user1_load1_hour4 
 + 1 x_user1_load1_hour5 + 1 x_user1_load1_hour6 + 1 x_user1_load1_hour7 
 + 1 x_user1_load1_hour8 + 1 x_user1_load1_hour9 + 1 x_user1_load1_hour10 
 + 1 x_user1_load1_hour11 + 1 x_user1_load1_hour12  = 1.0
 load_load2_scheduled: + 1 x_user1_load2_hour0 + 1 x_user1_load2_hour1 
 + 1 x_user1_load2_hour2 + 1 x_user1_load2_hour3 + 1 x_user1_load2_hour4 
 + 1 x_user1_load2_hour5 + 1 x_user1_load2_hour6 + 1 x_user1_load2_hour7 
 + 1 x_user1_load2_hour8 + 1 x_user1_load2_hour9 + 1 x_user1_load2_hour10 
 + 1 x_user1_load2_hour11  = 1.0
 load_load3_scheduled: + 1 x_user1_load3_hour0 + 1 x_user1_load3_hour1 
 + 1 x_user1_load3_hour2 + 1 x_user1_load3_hour3 + 1 x_user1_load3_hour4 
 + 1 x_user1_load3_hour5 + 1 x_user1_load3_hour6 + 1 x_user1_load3_hour7 
 + 1 x_user1_load3_hour8 + 1 x_user1_load3_hour9 + 1 x_user1_load3_hour10 
 + 1 x_user1_load3_hour11  = 1.0
 load_load4_scheduled: + 1 x_user1_load4_hour0 + 1 x_user1_load4_hour1 
 + 1 x_user1_load4_hour2 + 1 x_user1_load4_hour3 + 1 x_user1_load4_hour4 
 + 1 x_user1_load4_hour5 + 1 x_user1_load4_hour6 + 1 x_user1_load4_hour7 
 + 1 x_user1_load4_hour8 + 1 x_user1_load4_hour9 + 1 x_user1_load4_hour10 
 + 1 x_user1_load4_hour11 + 1 x_user1_load4_hour12  = 1.0
 load_load5_scheduled: + 1 x_user1_load5_hour0 + 1 x_user1_load5_hour1 
 + 1 x_user1_load5_hour2 + 1 x_user1_load5_hour3 + 1 x_user1_load5_hour4 
 + 1 x_user1_load5_hour5 + 1 x_user1_load5_hour6 + 1 x_user1_load5_hour7 
 + 1 x_user1_load5_hour8 + 1 x_user1_load5_hour9  = 1.0
 load_load6_scheduled: + 1 x_user1_load6_hour0 + 1 x_user1_load6_hour1 
 + 1 x_user1_load6_hour2 + 1 x_user1_load6_hour3 + 1 x_user1_load6_hour4 
 + 1 x_user1_load6_hour5 + 1 x_user1_load6_hour6 + 1 x_user1_load6_hour7 
 + 1 x_user1_load6_hour8 + 1 x_user1_load6_hour9 + 1 x_user1_load6_hour10 
 + 1 x_user1_load6_hour11 + 1 x_user1_load6_hour12  = 1.0
 load_load7_scheduled: + 1 x_user1_load7_hour0 + 1 x_user1_load7_hour1 
 + 1 x_user1_load7_hour2 + 1 x_user1_load7_hour3 + 1 x_user1_load7_hour4 
 + 1 x_user1_load7_hour5 + 1 x_user1_load7_hour6 + 1 x_user1_load7_hour7 
 + 1 x_user1_load7_hour8 + 1 x_user1_load7_hour9 + 1 x_user1_load7_hour10 
 + 1 x_user1_load7_hour11 + 1 x_user1_load7_hour12  = 1.0
 MaxLoadConnection_user1_0: + 3 x_user1_load0_hour0 + 2 x_user1_load1_hour0 
 + 4 x_user1_load2_hour0 + 2 x_user1_load3_hour0 + 3 x_user1_load4_hour0 
 + 4 x_user1_load5_hour0 + 3 x_user1_load6_hour0 + 1 x_user1_load7_hour0 
  <= 4.0
 MaxLoadConnection_user1_1: + 3 x_user1_load0_hour1 + 2 x_user1_load0_hour0 
 + 2 x_user1_load1_hour1 + 4 x_user1_load1_hour0 + 4 x_user1_load2_hour1 
 + 1 x_user1_load2_hour0 + 2 x_user1_load3_hour1 + 1 x_user1_load3_hour0 
 + 3 x_user1_load4_hour1 + 1 x_user1_load4_hour0 + 4 x_user1_load5_hour1 
 + 1 x_user1_load5_hour0 + 3 x_user1_load6_hour1 + 1 x_user1_load6_hour0 
 + 1 x_user1_load7_hour1 + 3 x_user1_load7_hour0  <= 4.0
 MaxLoadConnection_user1_2: + 3 x_user1_load0_hour2 + 2 x_user1_load0_hour1 
 + 1 x_user1_load0_hour0 + 2 x_user1_load1_hour2 + 4 x_user1_load1_hour1 
 + 4 x_user1_load2_hour2 + 1 x_user1_load2_hour1 + 2 x_user1_load2_hour0 
 + 2 x_user1_load3_hour2 + 1 x_user1_load3_hour1 + 1 x_user1_load3_hour0 
 + 3 x_user1_load4_hour2 + 1 x_user1_load4_hour1 + 4 x_user1_load5_hour2 
 + 1 x_user1_load5_hour1 + 1 x_user1_load5_hour0 + 3 x_user1_load6_hour2 
 + 1 x_user1_load6_hour1 + 1 x_user1_load7_hour2 + 3 x_user1_load7_hour1 
  <= 4.0
 MaxLoadConnection_user1_3: + 3 x_user1_load0_hour3 + 2 x_user1_load0_hour2 
 + 1 x_user1_load0_hour1 + 2 x_user1_load1_hour3 + 4 x_user1_load1_hour2 
 + 4 x_user1_load2_hour3 + 1 x_user1_load2_hour2 + 2 x_user1_load2_hour1 
 + 2 x_user1_load3_hour3 + 1 x_user1_load3_hour2 + 1 x_user1_load3_hour1 
 + 3 x_user1_load4_hour3 + 1 x_user1_load4_hour2 + 4 x_user1_load5_hour3 
 + 1 x_user1_load5_hour2 + 1 x_user1_load5_hour1 + 1 x_user1_load5_hour0 
 + 3 x_user1_load6_hour3 + 1 x_user1_load6_hour2 + 1 x_user1_load7_hour3 
 + 3 x_user1_load7_hour2  <= 4.0
 MaxLoadConnection_user1_4: + 3 x_user1_load0_hour4 + 2 x_user1_load0_hour3 
 + 1 x_user1_load0_hour2 + 2 x_user1_load1_hour4 + 4 x_user1_load1_hour3 
 + 4 x_user1_load2_hour4 + 1 x_user1_load2_hour3 + 2 x_user1_load2_hour2 
 + 2 x_user1_load3_hour4 + 1 x_user1_load3_hour3 + 1 x_user1_load3_hour2 
 + 3 x_user1_load4_hour4 + 1 x_user1_load4_hour3 + 4 x_user1_load5_hour4 
 + 1 x_user1_load5_hour3 + 1 x_user1_load5_hour2 + 1 x_user1_load5_hour1 
 + 4 x_user1_load5_hour0 + 3 x_user1_load6_hour4 + 1 x_user1_load6_hour3 
 + 1 x_user1_load7_hour4 + 3 x_user1_load7_hour3  <= 4.0
 MaxLoadConnection_user1_5: + 3 x_user1_load0_hour5 + 2 x_user1_load0_hour4 
 + 1 x_user1_load0_hour3 + 2 x_user1_load1_hour5 + 4 x_user1_load1_hour4 
 + 4 x_user1_load2_hour5 + 1 x_user1_load2_hour4 + 2 x_user1_load2_hour3 
 + 2 x_user1_load3_hour5 + 1 x_user1_load3_hour4 + 1 x_user1_load3_hour3 
 + 3 x_user1_load4_hour5 + 1 x_user1_load4_hour4 + 4 x_user1_load5_hour5 
 + 1 x_user1_load5_hour4 + 1 x_user1_load5_hour3 + 1 x_user1_load5_hour2 
 + 4 x_user1_load5_hour1 + 3 x_user1_load6_hour5 + 1 x_user1_load6_hour4 
 + 1 x_user1_load7_hour5 + 3 x_user1_load7_hour4  <= 4.0
 MaxLoadConnection_user1_6: + 3 x_user1_load0_hour6 + 2 x_user1_load0_hour5 
 + 1 x_user1_load0_hour4 + 2 x_user1_load1_hour6 + 4 x_user1_load1_hour5 
 + 4 x_user1_load2_hour6 + 1 x_user1_load2_hour5 + 2 x_user1_load2_hour4 
 + 2 x_user1_load3_hour6 + 1 x_user1_load3_hour5 + 1 x_user1_load3_hour4 
 + 3 x_user1_load4_hour6 + 1 x_user1_load4_hour5 + 4 x_user1_load5_hour6 
 + 1 x_user1_load5_hour5 + 1 x_user1_load5_hour4 + 1 x_user1_load5_hour3 
 + 4 x_user1_load5_hour2 + 3 x_user1_load6_hour6 + 1 x_user1_load6_hour5 
 + 1 x_user1_load7_hour6 + 3 x_user1_load7_hour5  <= 4.0
 MaxLoadConnection_user1_7: + 3 x_user1_load0_hour7 + 2 x_user1_load0_hour6 
 + 1 x_user1_load0_hour5 + 2 x_user1_load1_hour7 + 4 x_user1_load1_hour6 
 + 4 x_user1_load2_hour7 + 1 x_user1_load2_hour6 + 2 x_user1_load2_hour5 
 + 2 x_user1_load3_hour7 + 1 x_user1_load3_hour6 + 1 x_user1_load3_hour5 
 + 3 x_user1_load4_hour7 + 1 x_user1_load4_hour6 + 4 x_user1_load5_hour7 
 + 1 x_user1_load5_hour6 + 1 x_user1_load5_hour5 + 1 x_user1_load5_hour4 
 + 4 x_user1_load5_hour3 + 3 x_user1_load6_hour7 + 1 x_user1_load6_hour6 
 + 1 x_user1_load7_hour7 + 3 x_user1_load7_hour6  <= 4.0
 MaxLoadConnection_user1_8: + 3 x_user1_load0_hour8 + 2 x_user1_load0_hour7 
 + 1 x_user1_load0_hour6 + 2 x_user1_load1_hour8 + 4 x_user1_load1_hour7 
 + 4 x_user1_load2_hour8 + 1 x_user1_load2_hour7 + 2 x_user1_load2_hour6 
 + 2 x_user1_load3_hour8 + 1 x_user1_load3_hour7 + 1 x_user1_load3_hour6 
 + 3 x_user1_load4_hour8 + 1 x_user1_load4_hour7 + 4 x_user1_load5_hour8 
 + 1 x_user1_load5_hour7 + 1 x_user1_load5_hour6 + 1 x_user1_load5_hour5 
 + 4 x_user1_load5_hour4 + 3 x_user1_load6_hour8 + 1 x_user1_load6_hour7 
 + 1 x_user1_load7_hour8 + 3 x_user1_load7_hour7  <= 4.0
 MaxLoadConnection_user1_9: + 3 x_user1_load0_hour9 + 2 x_user1_load0_hour8 
 + 1 x_user1_load0_hour7 + 2 x_user1_load1_hour9 + 4 x_user1_load1_hour8 
 + 4 x_user1_load2_hour9 + 1 x_user1_load2_hour8 + 2 x_user1_load2_hour7 
 + 2 x_user1_load3_hour9 + 1 x_user1_load3_hour8 + 1 x_user1_load3_hour7 
 + 3 x_user1_load4_hour9 + 1 x_user1_load4_hour8 + 4 x_user1_load5_hour9 
 + 1 x_user1_load5_hour8 + 1 x_user1_load5_hour7 + 1 x_user1_load5_hour6 
 + 4 x_user1_load5_hour5 + 3 x_user1_load6_hour9 + 1 x_user1_load6_hour8 
 + 1 x_user1_load7_hour9 + 3 x_user1_load7_hour8  <= 4.0
 MaxLoadConnection_user1_10: + 3 x_user1_load0_hour10 + 2 x_user1_load0_hour9 
 + 1 x_user1_load0_hour8 + 2 x_user1_load1_hour10 + 4 x_user1_load1_hour9 
 + 4 x_user1_load2_hour10 + 1 x_user1_load2_hour9 + 2 x_user1_load2_hour8 
 + 2 x_user1_load3_hour10 + 1 x_user1_load3_hour9 + 1 x_user1_load3_hour8 
 + 3 x_user1_load4_hour10 + 1 x_user1_load4_hour9 + 1 x_user1_load5_hour9 
 + 1 x_user1_load5_hour8 + 1 x_user1_load5_hour7 + 4 x_user1_load5_hour6 
 + 3 x_user1_load6_hour10 + 1 x_user1_load6_hour9 + 1 x_user1_load7_hour10 
 + 3 x_user1_load7_hour9  <= 4.0
 MaxLoadConnection_user1_11: + 3 x_user1_load0_hour11 + 2 x_user1_load0_hour10 
 + 1 x_user1_load0_hour9 + 2 x_user1_load1_hour11 + 4 x_user1_load1_hour10 
 + 4 x_user1_load2_hour11 + 1 x_user1_load2_hour10 + 2 x_user1_load2_hour9 
 + 2 x_user1_load3_hour11 + 1 x_user1_load3_hour10 + 1 x_user1_load3_hour9 
 + 3 x_user1_load4_hour11 + 1 x_user1_load4_hour10 + 1 x_user1_load5_hour9 
 + 1 x_user1_load5_hour8 + 4 x_user1_load5_hour7 + 3 x_user1_load6_hour11 
 + 1 x_user1_load6_hour10 + 1 x_user1_load7_hour11 + 3 x_user1_load7_hour10 
  <= 4.0
 MaxLoadConnection_user1_12: + 2 x_user1_load0_hour11 + 1 x_user1_load0_hour10 
 + 2 x_user1_load1_hour12 + 4 x_user1_load1_hour11 + 1 x_user1_load2_hour11 
 + 2 x_user1_load2_hour10 + 1 x_user1_load3_hour11 + 1 x_user1_load3_hour10 
 + 3 x_user1_load4_hour12 + 1 x_user1_load4_hour11 + 1 x_user1_load5_hour9 
 + 4 x_user1_load5_hour8 + 3 x_user1_load6_hour12 + 1 x_user1_load6_hour11 
 + 1 x_user1_load7_hour12 + 3 x_user1_load7_hour11  <= 4.0
 MaxLoadConnection_user1_13: + 1 x_user1_load0_hour11 + 4 x_user1_load1_hour12 
 + 2 x_user1_load2_hour11 + 1 x_user1_load3_hour11 + 1 x_user1_load4_hour12 
 + 4 x_user1_load5_hour9 + 1 x_user1_load6_hour12 + 3 x_user1_load7_hour12 
  <= 4.0

Bounds

Binary
 x_user1_load0_hour0 x_user1_load0_hour1 x_user1_load0_hour2
  x_user1_load0_hour3 x_user1_load0_hour4 x_user1_load0_hour5
  x_user1_load0_hour6 x_user1_load0_hour7 x_user1_load0_hour8
  x_user1_load0_hour9 x_user1_load0_hour10 x_user1_load0_hour11
  x_user1_load1_hour0 x_user1_load1_hour1 x_user1_load1_hour2
  x_user1_load1_hour3 x_user1_load1_hour4 x_user1_load1_hour5
  x_user1_load1_hour6 x_user1_load1_hour7 x_user1_load1_hour8
  x_user1_load1_hour9 x_user1_load1_hour10 x_user1_load1_hour11
  x_user1_load1_hour12 x_user1_load2_hour0 x_user1_load2_hour1
  x_user1_load2_hour2 x_user1_load2_hour3 x_user1_load2_hour4
  x_user1_load2_hour5 x_user1_load2_hour6 x_user1_load2_hour7
  x_user1_load2_hour8 x_user1_load2_hour9 x_user1_load2_hour10
  x_user1_load2_hour11 x_user1_load3_hour0 x_user1_load3_hour1
  x_user1_load3_hour2 x_user1_load3_hour3 x_user1_load3_hour4
  x_user1_load3_hour5 x_user1_load3_hour6 x_user1_load3_hour7
  x_user1_load3_hour8 x_user1_load3_hour9 x_user1_load3_hour10
  x_user1_load3_hour11 x_user1_load4_hour0 x_user1_load4_hour1
  x_user1_load4_hour2 x_user1_load4_hour3 x_user1_load4_hour4
  x_user1_load4_hour5 x_user1_load4_hour6 x_user1_load4_hour7
  x_user1_load4_hour8 x_user1_load4_hour9 x_user1_load4_hour10
  x_user1_load4_hour11 x_user1_load4_hour12 x_user1_load5_hour0
  x_user1_load5_hour1 x_user1_load5_hour2 x_user1_load5_hour3
  x_user1_load5_hour4 x_user1_load5_hour5 x_user1_load5_hour6
  x_user1_load5_hour7 x_user1_load5_hour8 x_user1_load5_hour9
  x_user1_load6_hour0 x_user1_load6_hour1 x_user1_load6_hour2
  x_user1_load6_hour3 x_user1_load6_hour4 x_user1_load6_hour5
  x_user1_load6_hour6 x_user1_load6_hour7 x_user1_load6_hour8
  x_user1_load6_hour9 x_user1_load6_hour10 x_user1_load6_hour11
  x_user1_load6_hour12 x_user1_load7_hour0 x_user1_load7_hour1
  x_user1_load7_hour2 x_user1_load7_hour3 x_user1_load7_hour4
  x_user1_load7_hour5 x_user1_load7_hour6 x_user1_load7_hour7
  x_user1_load7_hour8 x_user1_load7_hour9 x_user1_load7_hour10
  x_user1_load7_hour11 x_user1_load7_hour12
General

End